73
120
96	8
95	10
94	4
93	8
92	13
91	11
90	13
89	14
88	12
87	10
86	9
85	15
84	4
83	7
82	15
81	10
80	6
79	12
78	9
77	10
76	9
75	16
74	12
73	9
72	9
71	7
70	13
69	9
68	5
67	8
66	10
65	13
64	8
63	13
62	12
61	9
60	8
59	17
58	11
57	7
56	7
55	9
54	8
53	18
52	7
51	6
50	12
49	8
48	9
47	17
46	11
45	14
44	14
43	6
42	6
41	10
40	11
39	11
38	10
37	15
36	16
35	8
34	8
33	13
32	10
31	13
30	7
29	10
28	12
27	15
26	12
25	9
24	3
